unsat
(define-fun f ((x0 (BitVec 64)) (x1 (BitVec 64))) (BitVec 64) (bvmul x0 x1))
(define-fun f ((x0 (BitVec 64)) (x1 (BitVec 64))) (BitVec 64) (bvmul x0 x1))
int-arith13.sl running time : 0 m .020002961 s
times : .020002961
